wcsp 61 12 164 1000
7 12 2 7 12 2 7 12 2 7 12 2 7 12 2 7 12 2 7 12 2 7 12 2 7 12 2 7 12 2 7 12 2 7 12 2 7 12 2 7 12 2 7 12 2 8 2 4 4 4 4 4 4 4 4 4 4 4 4 4 4
2 0 6 0 49
0 0 1
0 1 0
0 2 0
0 3 0
0 4 0
0 5 0
0 6 0
1 0 0
1 1 1
1 2 0
1 3 0
1 4 0
1 5 0
1 6 0
2 0 0
2 1 0
2 2 1
2 3 0
2 4 0
2 5 0
2 6 0
3 0 0
3 1 0
3 2 0
3 3 1
3 4 0
3 5 0
3 6 0
4 0 0
4 1 0
4 2 0
4 3 0
4 4 1
4 5 0
4 6 0
5 0 0
5 1 0
5 2 0
5 3 0
5 4 0
5 5 1
5 6 0
6 0 0
6 1 0
6 2 0
6 3 0
6 4 0
6 5 0
6 6 1
2 0 12 0 49
0 0 1
0 1 0
0 2 0
0 3 0
0 4 0
0 5 0
0 6 0
1 0 0
1 1 1
1 2 0
1 3 0
1 4 0
1 5 0
1 6 0
2 0 0
2 1 0
2 2 1
2 3 0
2 4 0
2 5 0
2 6 0
3 0 0
3 1 0
3 2 0
3 3 1
3 4 0
3 5 0
3 6 0
4 0 0
4 1 0
4 2 0
4 3 0
4 4 1
4 5 0
4 6 0
5 0 0
5 1 0
5 2 0
5 3 0
5 4 0
5 5 1
5 6 0
6 0 0
6 1 0
6 2 0
6 3 0
6 4 0
6 5 0
6 6 1
2 0 18 0 49
0 0 1
0 1 0
0 2 0
0 3 0
0 4 0
0 5 0
0 6 0
1 0 0
1 1 1
1 2 0
1 3 0
1 4 0
1 5 0
1 6 0
2 0 0
2 1 0
2 2 1
2 3 0
2 4 0
2 5 0
2 6 0
3 0 0
3 1 0
3 2 0
3 3 1
3 4 0
3 5 0
3 6 0
4 0 0
4 1 0
4 2 0
4 3 0
4 4 1
4 5 0
4 6 0
5 0 0
5 1 0
5 2 0
5 3 0
5 4 0
5 5 1
5 6 0
6 0 0
6 1 0
6 2 0
6 3 0
6 4 0
6 5 0
6 6 1
2 0 24 0 49
0 0 1
0 1 0
0 2 0
0 3 0
0 4 0
0 5 0
0 6 0
1 0 0
1 1 1
1 2 0
1 3 0
1 4 0
1 5 0
1 6 0
2 0 0
2 1 0
2 2 1
2 3 0
2 4 0
2 5 0
2 6 0
3 0 0
3 1 0
3 2 0
3 3 1
3 4 0
3 5 0
3 6 0
4 0 0
4 1 0
4 2 0
4 3 0
4 4 1
4 5 0
4 6 0
5 0 0
5 1 0
5 2 0
5 3 0
5 4 0
5 5 1
5 6 0
6 0 0
6 1 0
6 2 0
6 3 0
6 4 0
6 5 0
6 6 1
2 0 30 0 49
0 0 1
0 1 0
0 2 0
0 3 0
0 4 0
0 5 0
0 6 0
1 0 0
1 1 1
1 2 0
1 3 0
1 4 0
1 5 0
1 6 0
2 0 0
2 1 0
2 2 1
2 3 0
2 4 0
2 5 0
2 6 0
3 0 0
3 1 0
3 2 0
3 3 1
3 4 0
3 5 0
3 6 0
4 0 0
4 1 0
4 2 0
4 3 0
4 4 1
4 5 0
4 6 0
5 0 0
5 1 0
5 2 0
5 3 0
5 4 0
5 5 1
5 6 0
6 0 0
6 1 0
6 2 0
6 3 0
6 4 0
6 5 0
6 6 1
2 0 36 0 49
0 0 1
0 1 0
0 2 0
0 3 0
0 4 0
0 5 0
0 6 0
1 0 0
1 1 1
1 2 0
1 3 0
1 4 0
1 5 0
1 6 0
2 0 0
2 1 0
2 2 1
2 3 0
2 4 0
2 5 0
2 6 0
3 0 0
3 1 0
3 2 0
3 3 1
3 4 0
3 5 0
3 6 0
4 0 0
4 1 0
4 2 0
4 3 0
4 4 1
4 5 0
4 6 0
5 0 0
5 1 0
5 2 0
5 3 0
5 4 0
5 5 1
5 6 0
6 0 0
6 1 0
6 2 0
6 3 0
6 4 0
6 5 0
6 6 1
2 0 42 0 49
0 0 1
0 1 0
0 2 0
0 3 0
0 4 0
0 5 0
0 6 0
1 0 0
1 1 1
1 2 0
1 3 0
1 4 0
1 5 0
1 6 0
2 0 0
2 1 0
2 2 1
2 3 0
2 4 0
2 5 0
2 6 0
3 0 0
3 1 0
3 2 0
3 3 1
3 4 0
3 5 0
3 6 0
4 0 0
4 1 0
4 2 0
4 3 0
4 4 1
4 5 0
4 6 0
5 0 0
5 1 0
5 2 0
5 3 0
5 4 0
5 5 1
5 6 0
6 0 0
6 1 0
6 2 0
6 3 0
6 4 0
6 5 0
6 6 1
2 0 2 0 14
0 0 1
0 1 0
1 0 0
1 1 1
2 0 1
2 1 0
3 0 0
3 1 1
4 0 1
4 1 0
5 0 0
5 1 1
6 0 1
6 1 0
2 1 7 0 144
0 0 0
0 1 1
0 2 1
0 3 1
0 4 1
0 5 1
0 6 1
0 7 1
0 8 1
0 9 1
0 10 1
0 11 1
1 0 0
1 1 0
1 2 1
1 3 1
1 4 1
1 5 1
1 6 1
1 7 1
1 8 1
1 9 1
1 10 1
1 11 1
2 0 0
2 1 0
2 2 0
2 3 1
2 4 1
2 5 1
2 6 1
2 7 1
2 8 1
2 9 1
2 10 1
2 11 1
3 0 0
3 1 0
3 2 0
3 3 0
3 4 1
3 5 1
3 6 1
3 7 1
3 8 1
3 9 1
3 10 1
3 11 1
4 0 0
4 1 0
4 2 0
4 3 0
4 4 0
4 5 1
4 6 1
4 7 1
4 8 1
4 9 1
4 10 1
4 11 1
5 0 0
5 1 0
5 2 0
5 3 0
5 4 0
5 5 0
5 6 1
5 7 1
5 8 1
5 9 1
5 10 1
5 11 1
6 0 0
6 1 0
6 2 0
6 3 0
6 4 0
6 5 0
6 6 0
6 7 1
6 8 1
6 9 1
6 10 1
6 11 1
7 0 0
7 1 0
7 2 0
7 3 0
7 4 0
7 5 0
7 6 0
7 7 0
7 8 1
7 9 1
7 10 1
7 11 1
8 0 0
8 1 0
8 2 0
8 3 0
8 4 0
8 5 0
8 6 0
8 7 0
8 8 0
8 9 1
8 10 1
8 11 1
9 0 0
9 1 0
9 2 0
9 3 0
9 4 0
9 5 0
9 6 0
9 7 0
9 8 0
9 9 0
9 10 1
9 11 1
10 0 0
10 1 0
10 2 0
10 3 0
10 4 0
10 5 0
10 6 0
10 7 0
10 8 0
10 9 0
10 10 0
10 11 1
11 0 0
11 1 0
11 2 0
11 3 0
11 4 0
11 5 0
11 6 0
11 7 0
11 8 0
11 9 0
11 10 0
11 11 0
2 2 46 0 4
0 0 1
0 1 0
1 0 0
1 1 1
2 2 47 0 8
0 0 0
0 1 0
0 2 1
0 3 1
1 0 1
1 1 1
1 2 0
1 3 0
2 3 9 0 49
0 0 1
0 1 0
0 2 0
0 3 0
0 4 0
0 5 0
0 6 0
1 0 0
1 1 1
1 2 0
1 3 0
1 4 0
1 5 0
1 6 0
2 0 0
2 1 0
2 2 1
2 3 0
2 4 0
2 5 0
2 6 0
3 0 0
3 1 0
3 2 0
3 3 1
3 4 0
3 5 0
3 6 0
4 0 0
4 1 0
4 2 0
4 3 0
4 4 1
4 5 0
4 6 0
5 0 0
5 1 0
5 2 0
5 3 0
5 4 0
5 5 1
5 6 0
6 0 0
6 1 0
6 2 0
6 3 0
6 4 0
6 5 0
6 6 1
2 3 15 0 49
0 0 1
0 1 0
0 2 0
0 3 0
0 4 0
0 5 0
0 6 0
1 0 0
1 1 1
1 2 0
1 3 0
1 4 0
1 5 0
1 6 0
2 0 0
2 1 0
2 2 1
2 3 0
2 4 0
2 5 0
2 6 0
3 0 0
3 1 0
3 2 0
3 3 1
3 4 0
3 5 0
3 6 0
4 0 0
4 1 0
4 2 0
4 3 0
4 4 1
4 5 0
4 6 0
5 0 0
5 1 0
5 2 0
5 3 0
5 4 0
5 5 1
5 6 0
6 0 0
6 1 0
6 2 0
6 3 0
6 4 0
6 5 0
6 6 1
2 3 21 0 49
0 0 1
0 1 0
0 2 0
0 3 0
0 4 0
0 5 0
0 6 0
1 0 0
1 1 1
1 2 0
1 3 0
1 4 0
1 5 0
1 6 0
2 0 0
2 1 0
2 2 1
2 3 0
2 4 0
2 5 0
2 6 0
3 0 0
3 1 0
3 2 0
3 3 1
3 4 0
3 5 0
3 6 0
4 0 0
4 1 0
4 2 0
4 3 0
4 4 1
4 5 0
4 6 0
5 0 0
5 1 0
5 2 0
5 3 0
5 4 0
5 5 1
5 6 0
6 0 0
6 1 0
6 2 0
6 3 0
6 4 0
6 5 0
6 6 1
2 3 27 0 49
0 0 1
0 1 0
0 2 0
0 3 0
0 4 0
0 5 0
0 6 0
1 0 0
1 1 1
1 2 0
1 3 0
1 4 0
1 5 0
1 6 0
2 0 0
2 1 0
2 2 1
2 3 0
2 4 0
2 5 0
2 6 0
3 0 0
3 1 0
3 2 0
3 3 1
3 4 0
3 5 0
3 6 0
4 0 0
4 1 0
4 2 0
4 3 0
4 4 1
4 5 0
4 6 0
5 0 0
5 1 0
5 2 0
5 3 0
5 4 0
5 5 1
5 6 0
6 0 0
6 1 0
6 2 0
6 3 0
6 4 0
6 5 0
6 6 1
2 3 33 0 49
0 0 1
0 1 0
0 2 0
0 3 0
0 4 0
0 5 0
0 6 0
1 0 0
1 1 1
1 2 0
1 3 0
1 4 0
1 5 0
1 6 0
2 0 0
2 1 0
2 2 1
2 3 0
2 4 0
2 5 0
2 6 0
3 0 0
3 1 0
3 2 0
3 3 1
3 4 0
3 5 0
3 6 0
4 0 0
4 1 0
4 2 0
4 3 0
4 4 1
4 5 0
4 6 0
5 0 0
5 1 0
5 2 0
5 3 0
5 4 0
5 5 1
5 6 0
6 0 0
6 1 0
6 2 0
6 3 0
6 4 0
6 5 0
6 6 1
2 3 39 0 49
0 0 1
0 1 0
0 2 0
0 3 0
0 4 0
0 5 0
0 6 0
1 0 0
1 1 1
1 2 0
1 3 0
1 4 0
1 5 0
1 6 0
2 0 0
2 1 0
2 2 1
2 3 0
2 4 0
2 5 0
2 6 0
3 0 0
3 1 0
3 2 0
3 3 1
3 4 0
3 5 0
3 6 0
4 0 0
4 1 0
4 2 0
4 3 0
4 4 1
4 5 0
4 6 0
5 0 0
5 1 0
5 2 0
5 3 0
5 4 0
5 5 1
5 6 0
6 0 0
6 1 0
6 2 0
6 3 0
6 4 0
6 5 0
6 6 1
2 3 5 0 14
0 0 1
0 1 0
1 0 0
1 1 1
2 0 1
2 1 0
3 0 0
3 1 1
4 0 1
4 1 0
5 0 0
5 1 1
6 0 1
6 1 0
2 4 25 0 144
0 0 0
0 1 1
0 2 1
0 3 1
0 4 1
0 5 1
0 6 1
0 7 1
0 8 1
0 9 1
0 10 1
0 11 1
1 0 0
1 1 0
1 2 1
1 3 1
1 4 1
1 5 1
1 6 1
1 7 1
1 8 1
1 9 1
1 10 1
1 11 1
2 0 0
2 1 0
2 2 0
2 3 1
2 4 1
2 5 1
2 6 1
2 7 1
2 8 1
2 9 1
2 10 1
2 11 1
3 0 0
3 1 0
3 2 0
3 3 0
3 4 1
3 5 1
3 6 1
3 7 1
3 8 1
3 9 1
3 10 1
3 11 1
4 0 0
4 1 0
4 2 0
4 3 0
4 4 0
4 5 1
4 6 1
4 7 1
4 8 1
4 9 1
4 10 1
4 11 1
5 0 0
5 1 0
5 2 0
5 3 0
5 4 0
5 5 0
5 6 1
5 7 1
5 8 1
5 9 1
5 10 1
5 11 1
6 0 0
6 1 0
6 2 0
6 3 0
6 4 0
6 5 0
6 6 0
6 7 1
6 8 1
6 9 1
6 10 1
6 11 1
7 0 0
7 1 0
7 2 0
7 3 0
7 4 0
7 5 0
7 6 0
7 7 0
7 8 1
7 9 1
7 10 1
7 11 1
8 0 0
8 1 0
8 2 0
8 3 0
8 4 0
8 5 0
8 6 0
8 7 0
8 8 0
8 9 1
8 10 1
8 11 1
9 0 0
9 1 0
9 2 0
9 3 0
9 4 0
9 5 0
9 6 0
9 7 0
9 8 0
9 9 0
9 10 1
9 11 1
10 0 0
10 1 0
10 2 0
10 3 0
10 4 0
10 5 0
10 6 0
10 7 0
10 8 0
10 9 0
10 10 0
10 11 1
11 0 0
11 1 0
11 2 0
11 3 0
11 4 0
11 5 0
11 6 0
11 7 0
11 8 0
11 9 0
11 10 0
11 11 0
2 4 28 0 144
0 0 0
0 1 0
0 2 0
0 3 0
0 4 0
0 5 0
0 6 0
0 7 0
0 8 0
0 9 0
0 10 0
0 11 0
1 0 1
1 1 0
1 2 0
1 3 0
1 4 0
1 5 0
1 6 0
1 7 0
1 8 0
1 9 0
1 10 0
1 11 0
2 0 1
2 1 1
2 2 0
2 3 0
2 4 0
2 5 0
2 6 0
2 7 0
2 8 0
2 9 0
2 10 0
2 11 0
3 0 1
3 1 1
3 2 1
3 3 0
3 4 0
3 5 0
3 6 0
3 7 0
3 8 0
3 9 0
3 10 0
3 11 0
4 0 1
4 1 1
4 2 1
4 3 1
4 4 0
4 5 0
4 6 0
4 7 0
4 8 0
4 9 0
4 10 0
4 11 0
5 0 1
5 1 1
5 2 1
5 3 1
5 4 1
5 5 0
5 6 0
5 7 0
5 8 0
5 9 0
5 10 0
5 11 0
6 0 1
6 1 1
6 2 1
6 3 1
6 4 1
6 5 1
6 6 0
6 7 0
6 8 0
6 9 0
6 10 0
6 11 0
7 0 1
7 1 1
7 2 1
7 3 1
7 4 1
7 5 1
7 6 1
7 7 0
7 8 0
7 9 0
7 10 0
7 11 0
8 0 1
8 1 1
8 2 1
8 3 1
8 4 1
8 5 1
8 6 1
8 7 1
8 8 0
8 9 0
8 10 0
8 11 0
9 0 1
9 1 1
9 2 1
9 3 1
9 4 1
9 5 1
9 6 1
9 7 1
9 8 1
9 9 0
9 10 0
9 11 0
10 0 1
10 1 1
10 2 1
10 3 1
10 4 1
10 5 1
10 6 1
10 7 1
10 8 1
10 9 1
10 10 0
10 11 0
11 0 1
11 1 1
11 2 1
11 3 1
11 4 1
11 5 1
11 6 1
11 7 1
11 8 1
11 9 1
11 10 1
11 11 0
2 5 47 0 8
0 0 0
0 1 1
0 2 1
0 3 0
1 0 1
1 1 0
1 2 0
1 3 1
2 5 48 0 8
0 0 0
0 1 0
0 2 1
0 3 1
1 0 1
1 1 1
1 2 0
1 3 0
2 6 12 0 49
0 0 1
0 1 0
0 2 0
0 3 0
0 4 0
0 5 0
0 6 0
1 0 0
1 1 1
1 2 0
1 3 0
1 4 0
1 5 0
1 6 0
2 0 0
2 1 0
2 2 1
2 3 0
2 4 0
2 5 0
2 6 0
3 0 0
3 1 0
3 2 0
3 3 1
3 4 0
3 5 0
3 6 0
4 0 0
4 1 0
4 2 0
4 3 0
4 4 1
4 5 0
4 6 0
5 0 0
5 1 0
5 2 0
5 3 0
5 4 0
5 5 1
5 6 0
6 0 0
6 1 0
6 2 0
6 3 0
6 4 0
6 5 0
6 6 1
2 6 18 0 49
0 0 1
0 1 0
0 2 0
0 3 0
0 4 0
0 5 0
0 6 0
1 0 0
1 1 1
1 2 0
1 3 0
1 4 0
1 5 0
1 6 0
2 0 0
2 1 0
2 2 1
2 3 0
2 4 0
2 5 0
2 6 0
3 0 0
3 1 0
3 2 0
3 3 1
3 4 0
3 5 0
3 6 0
4 0 0
4 1 0
4 2 0
4 3 0
4 4 1
4 5 0
4 6 0
5 0 0
5 1 0
5 2 0
5 3 0
5 4 0
5 5 1
5 6 0
6 0 0
6 1 0
6 2 0
6 3 0
6 4 0
6 5 0
6 6 1
2 6 24 0 49
0 0 1
0 1 0
0 2 0
0 3 0
0 4 0
0 5 0
0 6 0
1 0 0
1 1 1
1 2 0
1 3 0
1 4 0
1 5 0
1 6 0
2 0 0
2 1 0
2 2 1
2 3 0
2 4 0
2 5 0
2 6 0
3 0 0
3 1 0
3 2 0
3 3 1
3 4 0
3 5 0
3 6 0
4 0 0
4 1 0
4 2 0
4 3 0
4 4 1
4 5 0
4 6 0
5 0 0
5 1 0
5 2 0
5 3 0
5 4 0
5 5 1
5 6 0
6 0 0
6 1 0
6 2 0
6 3 0
6 4 0
6 5 0
6 6 1
2 6 30 0 49
0 0 1
0 1 0
0 2 0
0 3 0
0 4 0
0 5 0
0 6 0
1 0 0
1 1 1
1 2 0
1 3 0
1 4 0
1 5 0
1 6 0
2 0 0
2 1 0
2 2 1
2 3 0
2 4 0
2 5 0
2 6 0
3 0 0
3 1 0
3 2 0
3 3 1
3 4 0
3 5 0
3 6 0
4 0 0
4 1 0
4 2 0
4 3 0
4 4 1
4 5 0
4 6 0
5 0 0
5 1 0
5 2 0
5 3 0
5 4 0
5 5 1
5 6 0
6 0 0
6 1 0
6 2 0
6 3 0
6 4 0
6 5 0
6 6 1
2 6 36 0 49
0 0 1
0 1 0
0 2 0
0 3 0
0 4 0
0 5 0
0 6 0
1 0 0
1 1 1
1 2 0
1 3 0
1 4 0
1 5 0
1 6 0
2 0 0
2 1 0
2 2 1
2 3 0
2 4 0
2 5 0
2 6 0
3 0 0
3 1 0
3 2 0
3 3 1
3 4 0
3 5 0
3 6 0
4 0 0
4 1 0
4 2 0
4 3 0
4 4 1
4 5 0
4 6 0
5 0 0
5 1 0
5 2 0
5 3 0
5 4 0
5 5 1
5 6 0
6 0 0
6 1 0
6 2 0
6 3 0
6 4 0
6 5 0
6 6 1
2 6 42 0 49
0 0 1
0 1 0
0 2 0
0 3 0
0 4 0
0 5 0
0 6 0
1 0 0
1 1 1
1 2 0
1 3 0
1 4 0
1 5 0
1 6 0
2 0 0
2 1 0
2 2 1
2 3 0
2 4 0
2 5 0
2 6 0
3 0 0
3 1 0
3 2 0
3 3 1
3 4 0
3 5 0
3 6 0
4 0 0
4 1 0
4 2 0
4 3 0
4 4 1
4 5 0
4 6 0
5 0 0
5 1 0
5 2 0
5 3 0
5 4 0
5 5 1
5 6 0
6 0 0
6 1 0
6 2 0
6 3 0
6 4 0
6 5 0
6 6 1
2 6 8 0 14
0 0 1
0 1 0
1 0 0
1 1 1
2 0 1
2 1 0
3 0 0
3 1 1
4 0 1
4 1 0
5 0 0
5 1 1
6 0 1
6 1 0
2 7 43 0 144
0 0 0
0 1 1
0 2 1
0 3 1
0 4 1
0 5 1
0 6 1
0 7 1
0 8 1
0 9 1
0 10 1
0 11 1
1 0 0
1 1 0
1 2 1
1 3 1
1 4 1
1 5 1
1 6 1
1 7 1
1 8 1
1 9 1
1 10 1
1 11 1
2 0 0
2 1 0
2 2 0
2 3 1
2 4 1
2 5 1
2 6 1
2 7 1
2 8 1
2 9 1
2 10 1
2 11 1
3 0 0
3 1 0
3 2 0
3 3 0
3 4 1
3 5 1
3 6 1
3 7 1
3 8 1
3 9 1
3 10 1
3 11 1
4 0 0
4 1 0
4 2 0
4 3 0
4 4 0
4 5 1
4 6 1
4 7 1
4 8 1
4 9 1
4 10 1
4 11 1
5 0 0
5 1 0
5 2 0
5 3 0
5 4 0
5 5 0
5 6 1
5 7 1
5 8 1
5 9 1
5 10 1
5 11 1
6 0 0
6 1 0
6 2 0
6 3 0
6 4 0
6 5 0
6 6 0
6 7 1
6 8 1
6 9 1
6 10 1
6 11 1
7 0 0
7 1 0
7 2 0
7 3 0
7 4 0
7 5 0
7 6 0
7 7 0
7 8 1
7 9 1
7 10 1
7 11 1
8 0 0
8 1 0
8 2 0
8 3 0
8 4 0
8 5 0
8 6 0
8 7 0
8 8 0
8 9 1
8 10 1
8 11 1
9 0 0
9 1 0
9 2 0
9 3 0
9 4 0
9 5 0
9 6 0
9 7 0
9 8 0
9 9 0
9 10 1
9 11 1
10 0 0
10 1 0
10 2 0
10 3 0
10 4 0
10 5 0
10 6 0
10 7 0
10 8 0
10 9 0
10 10 0
10 11 1
11 0 0
11 1 0
11 2 0
11 3 0
11 4 0
11 5 0
11 6 0
11 7 0
11 8 0
11 9 0
11 10 0
11 11 0
2 8 48 0 8
0 0 1
0 1 0
0 2 0
0 3 1
1 0 0
1 1 1
1 2 1
1 3 0
2 8 49 0 8
0 0 0
0 1 0
0 2 1
0 3 1
1 0 1
1 1 1
1 2 0
1 3 0
2 9 15 0 49
0 0 1
0 1 0
0 2 0
0 3 0
0 4 0
0 5 0
0 6 0
1 0 0
1 1 1
1 2 0
1 3 0
1 4 0
1 5 0
1 6 0
2 0 0
2 1 0
2 2 1
2 3 0
2 4 0
2 5 0
2 6 0
3 0 0
3 1 0
3 2 0
3 3 1
3 4 0
3 5 0
3 6 0
4 0 0
4 1 0
4 2 0
4 3 0
4 4 1
4 5 0
4 6 0
5 0 0
5 1 0
5 2 0
5 3 0
5 4 0
5 5 1
5 6 0
6 0 0
6 1 0
6 2 0
6 3 0
6 4 0
6 5 0
6 6 1
2 9 21 0 49
0 0 1
0 1 0
0 2 0
0 3 0
0 4 0
0 5 0
0 6 0
1 0 0
1 1 1
1 2 0
1 3 0
1 4 0
1 5 0
1 6 0
2 0 0
2 1 0
2 2 1
2 3 0
2 4 0
2 5 0
2 6 0
3 0 0
3 1 0
3 2 0
3 3 1
3 4 0
3 5 0
3 6 0
4 0 0
4 1 0
4 2 0
4 3 0
4 4 1
4 5 0
4 6 0
5 0 0
5 1 0
5 2 0
5 3 0
5 4 0
5 5 1
5 6 0
6 0 0
6 1 0
6 2 0
6 3 0
6 4 0
6 5 0
6 6 1
2 9 27 0 49
0 0 1
0 1 0
0 2 0
0 3 0
0 4 0
0 5 0
0 6 0
1 0 0
1 1 1
1 2 0
1 3 0
1 4 0
1 5 0
1 6 0
2 0 0
2 1 0
2 2 1
2 3 0
2 4 0
2 5 0
2 6 0
3 0 0
3 1 0
3 2 0
3 3 1
3 4 0
3 5 0
3 6 0
4 0 0
4 1 0
4 2 0
4 3 0
4 4 1
4 5 0
4 6 0
5 0 0
5 1 0
5 2 0
5 3 0
5 4 0
5 5 1
5 6 0
6 0 0
6 1 0
6 2 0
6 3 0
6 4 0
6 5 0
6 6 1
2 9 33 0 49
0 0 1
0 1 0
0 2 0
0 3 0
0 4 0
0 5 0
0 6 0
1 0 0
1 1 1
1 2 0
1 3 0
1 4 0
1 5 0
1 6 0
2 0 0
2 1 0
2 2 1
2 3 0
2 4 0
2 5 0
2 6 0
3 0 0
3 1 0
3 2 0
3 3 1
3 4 0
3 5 0
3 6 0
4 0 0
4 1 0
4 2 0
4 3 0
4 4 1
4 5 0
4 6 0
5 0 0
5 1 0
5 2 0
5 3 0
5 4 0
5 5 1
5 6 0
6 0 0
6 1 0
6 2 0
6 3 0
6 4 0
6 5 0
6 6 1
2 9 39 0 49
0 0 1
0 1 0
0 2 0
0 3 0
0 4 0
0 5 0
0 6 0
1 0 0
1 1 1
1 2 0
1 3 0
1 4 0
1 5 0
1 6 0
2 0 0
2 1 0
2 2 1
2 3 0
2 4 0
2 5 0
2 6 0
3 0 0
3 1 0
3 2 0
3 3 1
3 4 0
3 5 0
3 6 0
4 0 0
4 1 0
4 2 0
4 3 0
4 4 1
4 5 0
4 6 0
5 0 0
5 1 0
5 2 0
5 3 0
5 4 0
5 5 1
5 6 0
6 0 0
6 1 0
6 2 0
6 3 0
6 4 0
6 5 0
6 6 1
2 9 11 0 14
0 0 1
0 1 0
1 0 0
1 1 1
2 0 1
2 1 0
3 0 0
3 1 1
4 0 1
4 1 0
5 0 0
5 1 1
6 0 1
6 1 0
2 10 31 0 144
0 0 0
0 1 0
0 2 0
0 3 0
0 4 0
0 5 0
0 6 0
0 7 0
0 8 0
0 9 0
0 10 0
0 11 0
1 0 1
1 1 0
1 2 0
1 3 0
1 4 0
1 5 0
1 6 0
1 7 0
1 8 0
1 9 0
1 10 0
1 11 0
2 0 1
2 1 1
2 2 0
2 3 0
2 4 0
2 5 0
2 6 0
2 7 0
2 8 0
2 9 0
2 10 0
2 11 0
3 0 1
3 1 1
3 2 1
3 3 0
3 4 0
3 5 0
3 6 0
3 7 0
3 8 0
3 9 0
3 10 0
3 11 0
4 0 1
4 1 1
4 2 1
4 3 1
4 4 0
4 5 0
4 6 0
4 7 0
4 8 0
4 9 0
4 10 0
4 11 0
5 0 1
5 1 1
5 2 1
5 3 1
5 4 1
5 5 0
5 6 0
5 7 0
5 8 0
5 9 0
5 10 0
5 11 0
6 0 1
6 1 1
6 2 1
6 3 1
6 4 1
6 5 1
6 6 0
6 7 0
6 8 0
6 9 0
6 10 0
6 11 0
7 0 1
7 1 1
7 2 1
7 3 1
7 4 1
7 5 1
7 6 1
7 7 0
7 8 0
7 9 0
7 10 0
7 11 0
8 0 1
8 1 1
8 2 1
8 3 1
8 4 1
8 5 1
8 6 1
8 7 1
8 8 0
8 9 0
8 10 0
8 11 0
9 0 1
9 1 1
9 2 1
9 3 1
9 4 1
9 5 1
9 6 1
9 7 1
9 8 1
9 9 0
9 10 0
9 11 0
10 0 1
10 1 1
10 2 1
10 3 1
10 4 1
10 5 1
10 6 1
10 7 1
10 8 1
10 9 1
10 10 0
10 11 0
11 0 1
11 1 1
11 2 1
11 3 1
11 4 1
11 5 1
11 6 1
11 7 1
11 8 1
11 9 1
11 10 1
11 11 0
2 11 49 0 8
0 0 0
0 1 1
0 2 1
0 3 0
1 0 1
1 1 0
1 2 0
1 3 1
2 11 50 0 8
0 0 0
0 1 0
0 2 1
0 3 1
1 0 1
1 1 1
1 2 0
1 3 0
2 12 18 0 49
0 0 1
0 1 0
0 2 0
0 3 0
0 4 0
0 5 0
0 6 0
1 0 0
1 1 1
1 2 0
1 3 0
1 4 0
1 5 0
1 6 0
2 0 0
2 1 0
2 2 1
2 3 0
2 4 0
2 5 0
2 6 0
3 0 0
3 1 0
3 2 0
3 3 1
3 4 0
3 5 0
3 6 0
4 0 0
4 1 0
4 2 0
4 3 0
4 4 1
4 5 0
4 6 0
5 0 0
5 1 0
5 2 0
5 3 0
5 4 0
5 5 1
5 6 0
6 0 0
6 1 0
6 2 0
6 3 0
6 4 0
6 5 0
6 6 1
2 12 24 0 49
0 0 1
0 1 0
0 2 0
0 3 0
0 4 0
0 5 0
0 6 0
1 0 0
1 1 1
1 2 0
1 3 0
1 4 0
1 5 0
1 6 0
2 0 0
2 1 0
2 2 1
2 3 0
2 4 0
2 5 0
2 6 0
3 0 0
3 1 0
3 2 0
3 3 1
3 4 0
3 5 0
3 6 0
4 0 0
4 1 0
4 2 0
4 3 0
4 4 1
4 5 0
4 6 0
5 0 0
5 1 0
5 2 0
5 3 0
5 4 0
5 5 1
5 6 0
6 0 0
6 1 0
6 2 0
6 3 0
6 4 0
6 5 0
6 6 1
2 12 30 0 49
0 0 1
0 1 0
0 2 0
0 3 0
0 4 0
0 5 0
0 6 0
1 0 0
1 1 1
1 2 0
1 3 0
1 4 0
1 5 0
1 6 0
2 0 0
2 1 0
2 2 1
2 3 0
2 4 0
2 5 0
2 6 0
3 0 0
3 1 0
3 2 0
3 3 1
3 4 0
3 5 0
3 6 0
4 0 0
4 1 0
4 2 0
4 3 0
4 4 1
4 5 0
4 6 0
5 0 0
5 1 0
5 2 0
5 3 0
5 4 0
5 5 1
5 6 0
6 0 0
6 1 0
6 2 0
6 3 0
6 4 0
6 5 0
6 6 1
2 12 36 0 49
0 0 1
0 1 0
0 2 0
0 3 0
0 4 0
0 5 0
0 6 0
1 0 0
1 1 1
1 2 0
1 3 0
1 4 0
1 5 0
1 6 0
2 0 0
2 1 0
2 2 1
2 3 0
2 4 0
2 5 0
2 6 0
3 0 0
3 1 0
3 2 0
3 3 1
3 4 0
3 5 0
3 6 0
4 0 0
4 1 0
4 2 0
4 3 0
4 4 1
4 5 0
4 6 0
5 0 0
5 1 0
5 2 0
5 3 0
5 4 0
5 5 1
5 6 0
6 0 0
6 1 0
6 2 0
6 3 0
6 4 0
6 5 0
6 6 1
2 12 42 0 49
0 0 1
0 1 0
0 2 0
0 3 0
0 4 0
0 5 0
0 6 0
1 0 0
1 1 1
1 2 0
1 3 0
1 4 0
1 5 0
1 6 0
2 0 0
2 1 0
2 2 1
2 3 0
2 4 0
2 5 0
2 6 0
3 0 0
3 1 0
3 2 0
3 3 1
3 4 0
3 5 0
3 6 0
4 0 0
4 1 0
4 2 0
4 3 0
4 4 1
4 5 0
4 6 0
5 0 0
5 1 0
5 2 0
5 3 0
5 4 0
5 5 1
5 6 0
6 0 0
6 1 0
6 2 0
6 3 0
6 4 0
6 5 0
6 6 1
2 12 14 0 14
0 0 1
0 1 0
1 0 0
1 1 1
2 0 1
2 1 0
3 0 0
3 1 1
4 0 1
4 1 0
5 0 0
5 1 1
6 0 1
6 1 0
2 13 37 0 144
0 0 0
0 1 1
0 2 1
0 3 1
0 4 1
0 5 1
0 6 1
0 7 1
0 8 1
0 9 1
0 10 1
0 11 1
1 0 0
1 1 0
1 2 1
1 3 1
1 4 1
1 5 1
1 6 1
1 7 1
1 8 1
1 9 1
1 10 1
1 11 1
2 0 0
2 1 0
2 2 0
2 3 1
2 4 1
2 5 1
2 6 1
2 7 1
2 8 1
2 9 1
2 10 1
2 11 1
3 0 0
3 1 0
3 2 0
3 3 0
3 4 1
3 5 1
3 6 1
3 7 1
3 8 1
3 9 1
3 10 1
3 11 1
4 0 0
4 1 0
4 2 0
4 3 0
4 4 0
4 5 1
4 6 1
4 7 1
4 8 1
4 9 1
4 10 1
4 11 1
5 0 0
5 1 0
5 2 0
5 3 0
5 4 0
5 5 0
5 6 1
5 7 1
5 8 1
5 9 1
5 10 1
5 11 1
6 0 0
6 1 0
6 2 0
6 3 0
6 4 0
6 5 0
6 6 0
6 7 1
6 8 1
6 9 1
6 10 1
6 11 1
7 0 0
7 1 0
7 2 0
7 3 0
7 4 0
7 5 0
7 6 0
7 7 0
7 8 1
7 9 1
7 10 1
7 11 1
8 0 0
8 1 0
8 2 0
8 3 0
8 4 0
8 5 0
8 6 0
8 7 0
8 8 0
8 9 1
8 10 1
8 11 1
9 0 0
9 1 0
9 2 0
9 3 0
9 4 0
9 5 0
9 6 0
9 7 0
9 8 0
9 9 0
9 10 1
9 11 1
10 0 0
10 1 0
10 2 0
10 3 0
10 4 0
10 5 0
10 6 0
10 7 0
10 8 0
10 9 0
10 10 0
10 11 1
11 0 0
11 1 0
11 2 0
11 3 0
11 4 0
11 5 0
11 6 0
11 7 0
11 8 0
11 9 0
11 10 0
11 11 0
2 13 22 0 144
0 0 0
0 1 0
0 2 0
0 3 0
0 4 0
0 5 0
0 6 0
0 7 0
0 8 0
0 9 0
0 10 0
0 11 0
1 0 1
1 1 0
1 2 0
1 3 0
1 4 0
1 5 0
1 6 0
1 7 0
1 8 0
1 9 0
1 10 0
1 11 0
2 0 1
2 1 1
2 2 0
2 3 0
2 4 0
2 5 0
2 6 0
2 7 0
2 8 0
2 9 0
2 10 0
2 11 0
3 0 1
3 1 1
3 2 1
3 3 0
3 4 0
3 5 0
3 6 0
3 7 0
3 8 0
3 9 0
3 10 0
3 11 0
4 0 1
4 1 1
4 2 1
4 3 1
4 4 0
4 5 0
4 6 0
4 7 0
4 8 0
4 9 0
4 10 0
4 11 0
5 0 1
5 1 1
5 2 1
5 3 1
5 4 1
5 5 0
5 6 0
5 7 0
5 8 0
5 9 0
5 10 0
5 11 0
6 0 1
6 1 1
6 2 1
6 3 1
6 4 1
6 5 1
6 6 0
6 7 0
6 8 0
6 9 0
6 10 0
6 11 0
7 0 1
7 1 1
7 2 1
7 3 1
7 4 1
7 5 1
7 6 1
7 7 0
7 8 0
7 9 0
7 10 0
7 11 0
8 0 1
8 1 1
8 2 1
8 3 1
8 4 1
8 5 1
8 6 1
8 7 1
8 8 0
8 9 0
8 10 0
8 11 0
9 0 1
9 1 1
9 2 1
9 3 1
9 4 1
9 5 1
9 6 1
9 7 1
9 8 1
9 9 0
9 10 0
9 11 0
10 0 1
10 1 1
10 2 1
10 3 1
10 4 1
10 5 1
10 6 1
10 7 1
10 8 1
10 9 1
10 10 0
10 11 0
11 0 1
11 1 1
11 2 1
11 3 1
11 4 1
11 5 1
11 6 1
11 7 1
11 8 1
11 9 1
11 10 1
11 11 0
2 14 50 0 8
0 0 1
0 1 0
0 2 0
0 3 1
1 0 0
1 1 1
1 2 1
1 3 0
2 14 51 0 8
0 0 0
0 1 0
0 2 1
0 3 1
1 0 1
1 1 1
1 2 0
1 3 0
2 15 21 0 49
0 0 1
0 1 0
0 2 0
0 3 0
0 4 0
0 5 0
0 6 0
1 0 0
1 1 1
1 2 0
1 3 0
1 4 0
1 5 0
1 6 0
2 0 0
2 1 0
2 2 1
2 3 0
2 4 0
2 5 0
2 6 0
3 0 0
3 1 0
3 2 0
3 3 1
3 4 0
3 5 0
3 6 0
4 0 0
4 1 0
4 2 0
4 3 0
4 4 1
4 5 0
4 6 0
5 0 0
5 1 0
5 2 0
5 3 0
5 4 0
5 5 1
5 6 0
6 0 0
6 1 0
6 2 0
6 3 0
6 4 0
6 5 0
6 6 1
2 15 27 0 49
0 0 1
0 1 0
0 2 0
0 3 0
0 4 0
0 5 0
0 6 0
1 0 0
1 1 1
1 2 0
1 3 0
1 4 0
1 5 0
1 6 0
2 0 0
2 1 0
2 2 1
2 3 0
2 4 0
2 5 0
2 6 0
3 0 0
3 1 0
3 2 0
3 3 1
3 4 0
3 5 0
3 6 0
4 0 0
4 1 0
4 2 0
4 3 0
4 4 1
4 5 0
4 6 0
5 0 0
5 1 0
5 2 0
5 3 0
5 4 0
5 5 1
5 6 0
6 0 0
6 1 0
6 2 0
6 3 0
6 4 0
6 5 0
6 6 1
2 15 33 0 49
0 0 1
0 1 0
0 2 0
0 3 0
0 4 0
0 5 0
0 6 0
1 0 0
1 1 1
1 2 0
1 3 0
1 4 0
1 5 0
1 6 0
2 0 0
2 1 0
2 2 1
2 3 0
2 4 0
2 5 0
2 6 0
3 0 0
3 1 0
3 2 0
3 3 1
3 4 0
3 5 0
3 6 0
4 0 0
4 1 0
4 2 0
4 3 0
4 4 1
4 5 0
4 6 0
5 0 0
5 1 0
5 2 0
5 3 0
5 4 0
5 5 1
5 6 0
6 0 0
6 1 0
6 2 0
6 3 0
6 4 0
6 5 0
6 6 1
2 15 39 0 49
0 0 1
0 1 0
0 2 0
0 3 0
0 4 0
0 5 0
0 6 0
1 0 0
1 1 1
1 2 0
1 3 0
1 4 0
1 5 0
1 6 0
2 0 0
2 1 0
2 2 1
2 3 0
2 4 0
2 5 0
2 6 0
3 0 0
3 1 0
3 2 0
3 3 1
3 4 0
3 5 0
3 6 0
4 0 0
4 1 0
4 2 0
4 3 0
4 4 1
4 5 0
4 6 0
5 0 0
5 1 0
5 2 0
5 3 0
5 4 0
5 5 1
5 6 0
6 0 0
6 1 0
6 2 0
6 3 0
6 4 0
6 5 0
6 6 1
2 15 17 0 14
0 0 1
0 1 0
1 0 0
1 1 1
2 0 1
2 1 0
3 0 0
3 1 1
4 0 1
4 1 0
5 0 0
5 1 1
6 0 1
6 1 0
2 16 34 0 144
0 0 0
0 1 0
0 2 0
0 3 0
0 4 0
0 5 0
0 6 0
0 7 0
0 8 0
0 9 0
0 10 0
0 11 0
1 0 1
1 1 0
1 2 0
1 3 0
1 4 0
1 5 0
1 6 0
1 7 0
1 8 0
1 9 0
1 10 0
1 11 0
2 0 1
2 1 1
2 2 0
2 3 0
2 4 0
2 5 0
2 6 0
2 7 0
2 8 0
2 9 0
2 10 0
2 11 0
3 0 1
3 1 1
3 2 1
3 3 0
3 4 0
3 5 0
3 6 0
3 7 0
3 8 0
3 9 0
3 10 0
3 11 0
4 0 1
4 1 1
4 2 1
4 3 1
4 4 0
4 5 0
4 6 0
4 7 0
4 8 0
4 9 0
4 10 0
4 11 0
5 0 1
5 1 1
5 2 1
5 3 1
5 4 1
5 5 0
5 6 0
5 7 0
5 8 0
5 9 0
5 10 0
5 11 0
6 0 1
6 1 1
6 2 1
6 3 1
6 4 1
6 5 1
6 6 0
6 7 0
6 8 0
6 9 0
6 10 0
6 11 0
7 0 1
7 1 1
7 2 1
7 3 1
7 4 1
7 5 1
7 6 1
7 7 0
7 8 0
7 9 0
7 10 0
7 11 0
8 0 1
8 1 1
8 2 1
8 3 1
8 4 1
8 5 1
8 6 1
8 7 1
8 8 0
8 9 0
8 10 0
8 11 0
9 0 1
9 1 1
9 2 1
9 3 1
9 4 1
9 5 1
9 6 1
9 7 1
9 8 1
9 9 0
9 10 0
9 11 0
10 0 1
10 1 1
10 2 1
10 3 1
10 4 1
10 5 1
10 6 1
10 7 1
10 8 1
10 9 1
10 10 0
10 11 0
11 0 1
11 1 1
11 2 1
11 3 1
11 4 1
11 5 1
11 6 1
11 7 1
11 8 1
11 9 1
11 10 1
11 11 0
2 17 51 0 8
0 0 0
0 1 1
0 2 1
0 3 0
1 0 1
1 1 0
1 2 0
1 3 1
2 17 52 0 8
0 0 0
0 1 0
0 2 1
0 3 1
1 0 1
1 1 1
1 2 0
1 3 0
2 18 24 0 49
0 0 1
0 1 0
0 2 0
0 3 0
0 4 0
0 5 0
0 6 0
1 0 0
1 1 1
1 2 0
1 3 0
1 4 0
1 5 0
1 6 0
2 0 0
2 1 0
2 2 1
2 3 0
2 4 0
2 5 0
2 6 0
3 0 0
3 1 0
3 2 0
3 3 1
3 4 0
3 5 0
3 6 0
4 0 0
4 1 0
4 2 0
4 3 0
4 4 1
4 5 0
4 6 0
5 0 0
5 1 0
5 2 0
5 3 0
5 4 0
5 5 1
5 6 0
6 0 0
6 1 0
6 2 0
6 3 0
6 4 0
6 5 0
6 6 1
2 18 30 0 49
0 0 1
0 1 0
0 2 0
0 3 0
0 4 0
0 5 0
0 6 0
1 0 0
1 1 1
1 2 0
1 3 0
1 4 0
1 5 0
1 6 0
2 0 0
2 1 0
2 2 1
2 3 0
2 4 0
2 5 0
2 6 0
3 0 0
3 1 0
3 2 0
3 3 1
3 4 0
3 5 0
3 6 0
4 0 0
4 1 0
4 2 0
4 3 0
4 4 1
4 5 0
4 6 0
5 0 0
5 1 0
5 2 0
5 3 0
5 4 0
5 5 1
5 6 0
6 0 0
6 1 0
6 2 0
6 3 0
6 4 0
6 5 0
6 6 1
2 18 36 0 49
0 0 1
0 1 0
0 2 0
0 3 0
0 4 0
0 5 0
0 6 0
1 0 0
1 1 1
1 2 0
1 3 0
1 4 0
1 5 0
1 6 0
2 0 0
2 1 0
2 2 1
2 3 0
2 4 0
2 5 0
2 6 0
3 0 0
3 1 0
3 2 0
3 3 1
3 4 0
3 5 0
3 6 0
4 0 0
4 1 0
4 2 0
4 3 0
4 4 1
4 5 0
4 6 0
5 0 0
5 1 0
5 2 0
5 3 0
5 4 0
5 5 1
5 6 0
6 0 0
6 1 0
6 2 0
6 3 0
6 4 0
6 5 0
6 6 1
2 18 42 0 49
0 0 1
0 1 0
0 2 0
0 3 0
0 4 0
0 5 0
0 6 0
1 0 0
1 1 1
1 2 0
1 3 0
1 4 0
1 5 0
1 6 0
2 0 0
2 1 0
2 2 1
2 3 0
2 4 0
2 5 0
2 6 0
3 0 0
3 1 0
3 2 0
3 3 1
3 4 0
3 5 0
3 6 0
4 0 0
4 1 0
4 2 0
4 3 0
4 4 1
4 5 0
4 6 0
5 0 0
5 1 0
5 2 0
5 3 0
5 4 0
5 5 1
5 6 0
6 0 0
6 1 0
6 2 0
6 3 0
6 4 0
6 5 0
6 6 1
2 18 20 0 14
0 0 1
0 1 0
1 0 0
1 1 1
2 0 1
2 1 0
3 0 0
3 1 1
4 0 1
4 1 0
5 0 0
5 1 1
6 0 1
6 1 0
2 19 31 0 144
0 0 0
0 1 1
0 2 1
0 3 1
0 4 1
0 5 1
0 6 1
0 7 1
0 8 1
0 9 1
0 10 1
0 11 1
1 0 0
1 1 0
1 2 1
1 3 1
1 4 1
1 5 1
1 6 1
1 7 1
1 8 1
1 9 1
1 10 1
1 11 1
2 0 0
2 1 0
2 2 0
2 3 1
2 4 1
2 5 1
2 6 1
2 7 1
2 8 1
2 9 1
2 10 1
2 11 1
3 0 0
3 1 0
3 2 0
3 3 0
3 4 1
3 5 1
3 6 1
3 7 1
3 8 1
3 9 1
3 10 1
3 11 1
4 0 0
4 1 0
4 2 0
4 3 0
4 4 0
4 5 1
4 6 1
4 7 1
4 8 1
4 9 1
4 10 1
4 11 1
5 0 0
5 1 0
5 2 0
5 3 0
5 4 0
5 5 0
5 6 1
5 7 1
5 8 1
5 9 1
5 10 1
5 11 1
6 0 0
6 1 0
6 2 0
6 3 0
6 4 0
6 5 0
6 6 0
6 7 1
6 8 1
6 9 1
6 10 1
6 11 1
7 0 0
7 1 0
7 2 0
7 3 0
7 4 0
7 5 0
7 6 0
7 7 0
7 8 1
7 9 1
7 10 1
7 11 1
8 0 0
8 1 0
8 2 0
8 3 0
8 4 0
8 5 0
8 6 0
8 7 0
8 8 0
8 9 1
8 10 1
8 11 1
9 0 0
9 1 0
9 2 0
9 3 0
9 4 0
9 5 0
9 6 0
9 7 0
9 8 0
9 9 0
9 10 1
9 11 1
10 0 0
10 1 0
10 2 0
10 3 0
10 4 0
10 5 0
10 6 0
10 7 0
10 8 0
10 9 0
10 10 0
10 11 1
11 0 0
11 1 0
11 2 0
11 3 0
11 4 0
11 5 0
11 6 0
11 7 0
11 8 0
11 9 0
11 10 0
11 11 0
2 20 52 0 8
0 0 1
0 1 0
0 2 0
0 3 1
1 0 0
1 1 1
1 2 1
1 3 0
2 20 53 0 8
0 0 0
0 1 0
0 2 1
0 3 1
1 0 1
1 1 1
1 2 0
1 3 0
2 21 27 0 49
0 0 1
0 1 0
0 2 0
0 3 0
0 4 0
0 5 0
0 6 0
1 0 0
1 1 1
1 2 0
1 3 0
1 4 0
1 5 0
1 6 0
2 0 0
2 1 0
2 2 1
2 3 0
2 4 0
2 5 0
2 6 0
3 0 0
3 1 0
3 2 0
3 3 1
3 4 0
3 5 0
3 6 0
4 0 0
4 1 0
4 2 0
4 3 0
4 4 1
4 5 0
4 6 0
5 0 0
5 1 0
5 2 0
5 3 0
5 4 0
5 5 1
5 6 0
6 0 0
6 1 0
6 2 0
6 3 0
6 4 0
6 5 0
6 6 1
2 21 33 0 49
0 0 1
0 1 0
0 2 0
0 3 0
0 4 0
0 5 0
0 6 0
1 0 0
1 1 1
1 2 0
1 3 0
1 4 0
1 5 0
1 6 0
2 0 0
2 1 0
2 2 1
2 3 0
2 4 0
2 5 0
2 6 0
3 0 0
3 1 0
3 2 0
3 3 1
3 4 0
3 5 0
3 6 0
4 0 0
4 1 0
4 2 0
4 3 0
4 4 1
4 5 0
4 6 0
5 0 0
5 1 0
5 2 0
5 3 0
5 4 0
5 5 1
5 6 0
6 0 0
6 1 0
6 2 0
6 3 0
6 4 0
6 5 0
6 6 1
2 21 39 0 49
0 0 1
0 1 0
0 2 0
0 3 0
0 4 0
0 5 0
0 6 0
1 0 0
1 1 1
1 2 0
1 3 0
1 4 0
1 5 0
1 6 0
2 0 0
2 1 0
2 2 1
2 3 0
2 4 0
2 5 0
2 6 0
3 0 0
3 1 0
3 2 0
3 3 1
3 4 0
3 5 0
3 6 0
4 0 0
4 1 0
4 2 0
4 3 0
4 4 1
4 5 0
4 6 0
5 0 0
5 1 0
5 2 0
5 3 0
5 4 0
5 5 1
5 6 0
6 0 0
6 1 0
6 2 0
6 3 0
6 4 0
6 5 0
6 6 1
2 21 23 0 14
0 0 1
0 1 0
1 0 0
1 1 1
2 0 1
2 1 0
3 0 0
3 1 1
4 0 1
4 1 0
5 0 0
5 1 1
6 0 1
6 1 0
2 23 53 0 8
0 0 0
0 1 1
0 2 1
0 3 0
1 0 1
1 1 0
1 2 0
1 3 1
2 23 54 0 8
0 0 0
0 1 0
0 2 1
0 3 1
1 0 1
1 1 1
1 2 0
1 3 0
2 24 30 0 49
0 0 1
0 1 0
0 2 0
0 3 0
0 4 0
0 5 0
0 6 0
1 0 0
1 1 1
1 2 0
1 3 0
1 4 0
1 5 0
1 6 0
2 0 0
2 1 0
2 2 1
2 3 0
2 4 0
2 5 0
2 6 0
3 0 0
3 1 0
3 2 0
3 3 1
3 4 0
3 5 0
3 6 0
4 0 0
4 1 0
4 2 0
4 3 0
4 4 1
4 5 0
4 6 0
5 0 0
5 1 0
5 2 0
5 3 0
5 4 0
5 5 1
5 6 0
6 0 0
6 1 0
6 2 0
6 3 0
6 4 0
6 5 0
6 6 1
2 24 36 0 49
0 0 1
0 1 0
0 2 0
0 3 0
0 4 0
0 5 0
0 6 0
1 0 0
1 1 1
1 2 0
1 3 0
1 4 0
1 5 0
1 6 0
2 0 0
2 1 0
2 2 1
2 3 0
2 4 0
2 5 0
2 6 0
3 0 0
3 1 0
3 2 0
3 3 1
3 4 0
3 5 0
3 6 0
4 0 0
4 1 0
4 2 0
4 3 0
4 4 1
4 5 0
4 6 0
5 0 0
5 1 0
5 2 0
5 3 0
5 4 0
5 5 1
5 6 0
6 0 0
6 1 0
6 2 0
6 3 0
6 4 0
6 5 0
6 6 1
2 24 42 0 49
0 0 1
0 1 0
0 2 0
0 3 0
0 4 0
0 5 0
0 6 0
1 0 0
1 1 1
1 2 0
1 3 0
1 4 0
1 5 0
1 6 0
2 0 0
2 1 0
2 2 1
2 3 0
2 4 0
2 5 0
2 6 0
3 0 0
3 1 0
3 2 0
3 3 1
3 4 0
3 5 0
3 6 0
4 0 0
4 1 0
4 2 0
4 3 0
4 4 1
4 5 0
4 6 0
5 0 0
5 1 0
5 2 0
5 3 0
5 4 0
5 5 1
5 6 0
6 0 0
6 1 0
6 2 0
6 3 0
6 4 0
6 5 0
6 6 1
2 24 26 0 14
0 0 1
0 1 0
1 0 0
1 1 1
2 0 1
2 1 0
3 0 0
3 1 1
4 0 1
4 1 0
5 0 0
5 1 1
6 0 1
6 1 0
2 26 54 0 8
0 0 1
0 1 0
0 2 0
0 3 1
1 0 0
1 1 1
1 2 1
1 3 0
2 26 55 0 8
0 0 0
0 1 0
0 2 1
0 3 1
1 0 1
1 1 1
1 2 0
1 3 0
2 27 33 0 49
0 0 1
0 1 0
0 2 0
0 3 0
0 4 0
0 5 0
0 6 0
1 0 0
1 1 1
1 2 0
1 3 0
1 4 0
1 5 0
1 6 0
2 0 0
2 1 0
2 2 1
2 3 0
2 4 0
2 5 0
2 6 0
3 0 0
3 1 0
3 2 0
3 3 1
3 4 0
3 5 0
3 6 0
4 0 0
4 1 0
4 2 0
4 3 0
4 4 1
4 5 0
4 6 0
5 0 0
5 1 0
5 2 0
5 3 0
5 4 0
5 5 1
5 6 0
6 0 0
6 1 0
6 2 0
6 3 0
6 4 0
6 5 0
6 6 1
2 27 39 0 49
0 0 1
0 1 0
0 2 0
0 3 0
0 4 0
0 5 0
0 6 0
1 0 0
1 1 1
1 2 0
1 3 0
1 4 0
1 5 0
1 6 0
2 0 0
2 1 0
2 2 1
2 3 0
2 4 0
2 5 0
2 6 0
3 0 0
3 1 0
3 2 0
3 3 1
3 4 0
3 5 0
3 6 0
4 0 0
4 1 0
4 2 0
4 3 0
4 4 1
4 5 0
4 6 0
5 0 0
5 1 0
5 2 0
5 3 0
5 4 0
5 5 1
5 6 0
6 0 0
6 1 0
6 2 0
6 3 0
6 4 0
6 5 0
6 6 1
2 27 29 0 14
0 0 1
0 1 0
1 0 0
1 1 1
2 0 1
2 1 0
3 0 0
3 1 1
4 0 1
4 1 0
5 0 0
5 1 1
6 0 1
6 1 0
2 29 55 0 8
0 0 0
0 1 1
0 2 1
0 3 0
1 0 1
1 1 0
1 2 0
1 3 1
2 29 56 0 8
0 0 0
0 1 0
0 2 1
0 3 1
1 0 1
1 1 1
1 2 0
1 3 0
2 30 36 0 49
0 0 1
0 1 0
0 2 0
0 3 0
0 4 0
0 5 0
0 6 0
1 0 0
1 1 1
1 2 0
1 3 0
1 4 0
1 5 0
1 6 0
2 0 0
2 1 0
2 2 1
2 3 0
2 4 0
2 5 0
2 6 0
3 0 0
3 1 0
3 2 0
3 3 1
3 4 0
3 5 0
3 6 0
4 0 0
4 1 0
4 2 0
4 3 0
4 4 1
4 5 0
4 6 0
5 0 0
5 1 0
5 2 0
5 3 0
5 4 0
5 5 1
5 6 0
6 0 0
6 1 0
6 2 0
6 3 0
6 4 0
6 5 0
6 6 1
2 30 42 0 49
0 0 1
0 1 0
0 2 0
0 3 0
0 4 0
0 5 0
0 6 0
1 0 0
1 1 1
1 2 0
1 3 0
1 4 0
1 5 0
1 6 0
2 0 0
2 1 0
2 2 1
2 3 0
2 4 0
2 5 0
2 6 0
3 0 0
3 1 0
3 2 0
3 3 1
3 4 0
3 5 0
3 6 0
4 0 0
4 1 0
4 2 0
4 3 0
4 4 1
4 5 0
4 6 0
5 0 0
5 1 0
5 2 0
5 3 0
5 4 0
5 5 1
5 6 0
6 0 0
6 1 0
6 2 0
6 3 0
6 4 0
6 5 0
6 6 1
2 30 32 0 14
0 0 1
0 1 0
1 0 0
1 1 1
2 0 1
2 1 0
3 0 0
3 1 1
4 0 1
4 1 0
5 0 0
5 1 1
6 0 1
6 1 0
2 32 56 0 8
0 0 1
0 1 0
0 2 0
0 3 1
1 0 0
1 1 1
1 2 1
1 3 0
2 32 57 0 8
0 0 0
0 1 0
0 2 1
0 3 1
1 0 1
1 1 1
1 2 0
1 3 0
2 33 39 0 49
0 0 1
0 1 0
0 2 0
0 3 0
0 4 0
0 5 0
0 6 0
1 0 0
1 1 1
1 2 0
1 3 0
1 4 0
1 5 0
1 6 0
2 0 0
2 1 0
2 2 1
2 3 0
2 4 0
2 5 0
2 6 0
3 0 0
3 1 0
3 2 0
3 3 1
3 4 0
3 5 0
3 6 0
4 0 0
4 1 0
4 2 0
4 3 0
4 4 1
4 5 0
4 6 0
5 0 0
5 1 0
5 2 0
5 3 0
5 4 0
5 5 1
5 6 0
6 0 0
6 1 0
6 2 0
6 3 0
6 4 0
6 5 0
6 6 1
2 33 35 0 14
0 0 1
0 1 0
1 0 0
1 1 1
2 0 1
2 1 0
3 0 0
3 1 1
4 0 1
4 1 0
5 0 0
5 1 1
6 0 1
6 1 0
2 34 40 0 144
0 0 0
0 1 0
0 2 0
0 3 0
0 4 0
0 5 0
0 6 0
0 7 0
0 8 0
0 9 0
0 10 0
0 11 0
1 0 1
1 1 0
1 2 0
1 3 0
1 4 0
1 5 0
1 6 0
1 7 0
1 8 0
1 9 0
1 10 0
1 11 0
2 0 1
2 1 1
2 2 0
2 3 0
2 4 0
2 5 0
2 6 0
2 7 0
2 8 0
2 9 0
2 10 0
2 11 0
3 0 1
3 1 1
3 2 1
3 3 0
3 4 0
3 5 0
3 6 0
3 7 0
3 8 0
3 9 0
3 10 0
3 11 0
4 0 1
4 1 1
4 2 1
4 3 1
4 4 0
4 5 0
4 6 0
4 7 0
4 8 0
4 9 0
4 10 0
4 11 0
5 0 1
5 1 1
5 2 1
5 3 1
5 4 1
5 5 0
5 6 0
5 7 0
5 8 0
5 9 0
5 10 0
5 11 0
6 0 1
6 1 1
6 2 1
6 3 1
6 4 1
6 5 1
6 6 0
6 7 0
6 8 0
6 9 0
6 10 0
6 11 0
7 0 1
7 1 1
7 2 1
7 3 1
7 4 1
7 5 1
7 6 1
7 7 0
7 8 0
7 9 0
7 10 0
7 11 0
8 0 1
8 1 1
8 2 1
8 3 1
8 4 1
8 5 1
8 6 1
8 7 1
8 8 0
8 9 0
8 10 0
8 11 0
9 0 1
9 1 1
9 2 1
9 3 1
9 4 1
9 5 1
9 6 1
9 7 1
9 8 1
9 9 0
9 10 0
9 11 0
10 0 1
10 1 1
10 2 1
10 3 1
10 4 1
10 5 1
10 6 1
10 7 1
10 8 1
10 9 1
10 10 0
10 11 0
11 0 1
11 1 1
11 2 1
11 3 1
11 4 1
11 5 1
11 6 1
11 7 1
11 8 1
11 9 1
11 10 1
11 11 0
2 35 57 0 8
0 0 0
0 1 1
0 2 1
0 3 0
1 0 1
1 1 0
1 2 0
1 3 1
2 35 58 0 8
0 0 0
0 1 0
0 2 1
0 3 1
1 0 1
1 1 1
1 2 0
1 3 0
2 36 42 0 49
0 0 1
0 1 0
0 2 0
0 3 0
0 4 0
0 5 0
0 6 0
1 0 0
1 1 1
1 2 0
1 3 0
1 4 0
1 5 0
1 6 0
2 0 0
2 1 0
2 2 1
2 3 0
2 4 0
2 5 0
2 6 0
3 0 0
3 1 0
3 2 0
3 3 1
3 4 0
3 5 0
3 6 0
4 0 0
4 1 0
4 2 0
4 3 0
4 4 1
4 5 0
4 6 0
5 0 0
5 1 0
5 2 0
5 3 0
5 4 0
5 5 1
5 6 0
6 0 0
6 1 0
6 2 0
6 3 0
6 4 0
6 5 0
6 6 1
2 36 38 0 14
0 0 1
0 1 0
1 0 0
1 1 1
2 0 1
2 1 0
3 0 0
3 1 1
4 0 1
4 1 0
5 0 0
5 1 1
6 0 1
6 1 0
2 38 58 0 8
0 0 1
0 1 0
0 2 0
0 3 1
1 0 0
1 1 1
1 2 1
1 3 0
2 38 59 0 8
0 0 0
0 1 0
0 2 1
0 3 1
1 0 1
1 1 1
1 2 0
1 3 0
2 39 41 0 14
0 0 1
0 1 0
1 0 0
1 1 1
2 0 1
2 1 0
3 0 0
3 1 1
4 0 1
4 1 0
5 0 0
5 1 1
6 0 1
6 1 0
2 41 59 0 8
0 0 0
0 1 1
0 2 1
0 3 0
1 0 1
1 1 0
1 2 0
1 3 1
2 41 60 0 8
0 0 0
0 1 0
0 2 1
0 3 1
1 0 1
1 1 1
1 2 0
1 3 0
2 42 44 0 14
0 0 1
0 1 0
1 0 0
1 1 1
2 0 1
2 1 0
3 0 0
3 1 1
4 0 1
4 1 0
5 0 0
5 1 1
6 0 1
6 1 0
2 44 60 0 8
0 0 1
0 1 0
0 2 0
0 3 1
1 0 0
1 1 1
1 2 1
1 3 0
1 0 1 7
0 0
1 0
2 0
3 0
4 0
5 0
6 0
1 1 1 12
0 0
1 0
2 0
3 0
4 0
5 0
6 0
7 0
8 0
9 0
10 0
11 0
1 2 1 2
0 0
1 0
1 3 1 7
0 0
1 0
2 0
3 0
4 0
5 0
6 0
1 4 1 12
0 0
1 0
2 0
3 0
4 0
5 0
6 0
7 0
8 0
9 0
10 0
11 0
1 5 1 2
0 0
1 0
1 6 1 7
0 0
1 0
2 0
3 0
4 0
5 0
6 0
1 7 1 12
0 0
1 0
2 0
3 0
4 0
5 0
6 0
7 0
8 0
9 0
10 0
11 0
1 8 1 2
0 0
1 0
1 9 1 7
0 0
1 0
2 0
3 0
4 0
5 0
6 0
1 10 1 12
0 0
1 0
2 0
3 0
4 0
5 0
6 0
7 0
8 0
9 0
10 0
11 0
1 11 1 2
0 0
1 0
1 12 1 7
0 0
1 0
2 0
3 0
4 0
5 0
6 0
1 13 1 12
0 0
1 0
2 0
3 0
4 0
5 0
6 0
7 0
8 0
9 0
10 0
11 0
1 14 1 2
0 0
1 0
1 15 1 7
0 0
1 0
2 0
3 0
4 0
5 0
6 0
1 16 1 12
0 0
1 0
2 0
3 0
4 0
5 0
6 0
7 0
8 0
9 0
10 0
11 0
1 17 1 2
0 0
1 0
1 18 1 7
0 0
1 0
2 0
3 0
4 0
5 0
6 0
1 19 1 12
0 0
1 0
2 0
3 0
4 0
5 0
6 0
7 0
8 0
9 0
10 0
11 0
1 20 1 2
0 0
1 0
1 21 1 7
0 0
1 0
2 0
3 0
4 0
5 0
6 0
1 22 1 12
0 0
1 0
2 0
3 0
4 0
5 0
6 0
7 0
8 0
9 0
10 0
11 0
1 23 1 2
0 0
1 0
1 24 1 7
0 0
1 0
2 0
3 0
4 0
5 0
6 0
1 25 1 12
0 0
1 0
2 0
3 0
4 0
5 0
6 0
7 0
8 0
9 0
10 0
11 0
1 26 1 2
0 0
1 0
1 27 1 7
0 0
1 0
2 0
3 0
4 0
5 0
6 0
1 28 1 12
0 0
1 0
2 0
3 0
4 0
5 0
6 0
7 0
8 0
9 0
10 0
11 0
1 29 1 2
0 0
1 0
1 30 1 7
0 0
1 0
2 0
3 0
4 0
5 0
6 0
1 31 1 12
0 0
1 0
2 0
3 0
4 0
5 0
6 0
7 0
8 0
9 0
10 0
11 0
1 32 1 2
0 0
1 0
1 33 1 7
0 0
1 0
2 0
3 0
4 0
5 0
6 0
1 34 1 12
0 0
1 0
2 0
3 0
4 0
5 0
6 0
7 0
8 0
9 0
10 0
11 0
1 35 1 2
0 0
1 0
1 36 1 7
0 0
1 0
2 0
3 0
4 0
5 0
6 0
1 37 1 12
0 0
1 0
2 0
3 0
4 0
5 0
6 0
7 0
8 0
9 0
10 0
11 0
1 38 1 2
0 0
1 0
1 39 1 7
0 0
1 0
2 0
3 0
4 0
5 0
6 0
1 40 1 12
0 0
1 0
2 0
3 0
4 0
5 0
6 0
7 0
8 0
9 0
10 0
11 0
1 41 1 2
0 0
1 0
1 42 1 7
0 0
1 0
2 0
3 0
4 0
5 0
6 0
1 43 1 12
0 0
1 0
2 0
3 0
4 0
5 0
6 0
7 0
8 0
9 0
10 0
11 0
1 44 1 2
0 0
1 0
1 45 1 8
0 0
1 0
2 0
3 0
4 0
5 0
6 0
7 0
1 46 1 2
0 0
1 0
1 47 1 4
0 0
1 0
2 0
3 0
1 48 1 4
0 0
1 0
2 0
3 0
1 49 1 4
0 0
1 0
2 0
3 0
1 50 1 4
0 0
1 0
2 0
3 0
1 51 1 4
0 0
1 0
2 0
3 0
1 52 1 4
0 0
1 0
2 0
3 0
1 53 1 4
0 0
1 0
2 0
3 0
1 54 1 4
0 0
1 0
2 0
3 0
1 55 1 4
0 0
1 0
2 0
3 0
1 56 1 4
0 0
1 0
2 0
3 0
1 57 1 4
0 0
1 0
2 0
3 0
1 58 1 4
0 0
1 0
2 0
3 0
1 59 1 4
0 0
1 0
2 0
3 0
1 60 1 4
0 0
1 0
2 0
3 0
